unknown
(model
; cardinality of BoundSet is 3
(declare-sort BoundSet 0)
; rep: @uc_BoundSet_0
; rep: @uc_BoundSet_1
; rep: @uc_BoundSet_2
; cardinality of UnboundSet is 1
(declare-sort UnboundSet 0)
(declare-fun groundTerm_4 () UnboundSet)
(define-fun IsWearingBlackCap ((BOUND_VARIABLE_502 BoundSet)) Bool (ite (= @uc_BoundSet_2 BOUND_VARIABLE_502) true (= @uc_BoundSet_0 BOUND_VARIABLE_502)))
(define-fun IsSuspendedInAir ((BOUND_VARIABLE_502 BoundSet)) Bool true)
(define-fun IsOnSwing ((BOUND_VARIABLE_502 BoundSet)) Bool true)
(define-fun IsInBlackHat ((BOUND_VARIABLE_502 BoundSet)) Bool false)
(define-fun IsSwingingWithChildren ((BOUND_VARIABLE_502 BoundSet)) Bool false)
)
sat
(model
; cardinality of BoundSet is 1
(declare-sort BoundSet 0)
; rep: @uc_BoundSet_0
; cardinality of UnboundSet is 1
(declare-sort UnboundSet 0)
(declare-fun groundTerm_11 () UnboundSet)
(define-fun IsWearingBlackCap ((BOUND_VARIABLE_562 BoundSet)) Bool true)
(define-fun IsSuspendedInAir ((BOUND_VARIABLE_562 BoundSet)) Bool true)
(define-fun IsOnSwing ((BOUND_VARIABLE_562 BoundSet)) Bool true)
(define-fun IsInBlackHat ((BOUND_VARIABLE_562 BoundSet)) Bool true)
(define-fun IsSwingingWithChildren ((BOUND_VARIABLE_562 BoundSet)) Bool false)
)
